
se = 40; % nombre de sessions
gr = 20; % nombre de grups de treball
cl = 7; % nombre de slots
minPapersPerSlot = 3; % minim nombre d'articles per sessio i slot
maxSesionsPar = 14; % maxim nombre de sessions paraleles

npMax = [5, 3, 4, 5, 6, 4, 4]; % nombre maxim de papers per slot

np = [15, 16, 3, 3, 3, 11, 8, 3, 3, 7, 3, 3, 8, 3, 3, 7, 5, 11, 13, 3, 13, 16, 3, 7, 6, 10, 10, 12, 3, 4, 8, 11, 3, 19, 10, 13, 3, 9, 9, 3]; % nombre de papers acceptats a cada sessio

WG = [ {}, {1}, {2}, {}, {3,4,5}, {6}, {7,8,9}, {10}, {}, {11}, {12}, {13,14,15}, {16,17,18}, {19}, {}, {20}, {1}, {2}, {3}, {4}, {}, {5}, {}, {6,7}, {8}, {9}, {10}, {}, {11}, {}, {}, {12,13}, {}, {14}, {15}, {16,17,18}, {19}, {20,1,2}, {}, {3} ]; % grups per sessio

